Using license file /home/anup/gurobi.lic
Academic license - for non-commercial use only
Changed value of parameter NonConvex to 2
   Prev: -1  Min: -1  Max: 2  Default: -1

Gurobi Optimizer version 9.0.0 build v9.0.0rc2 (linux64)
Optimize a model with 15 rows, 21 columns and 32 nonzeros
Model fingerprint: 0x5daf0406
Model has 3 quadratic constraints
Model has 3 general constraints
Variable types: 17 continuous, 4 integer (2 binary)
Coefficient statistics:
  Matrix range     [1e-04, 3e+04]
  QMatrix range    [1e+00, 1e+00]
  QLMatrix range   [1e+00, 1e+00]
  Objective range  [1e+00, 1e+00]
  Bounds range     [1e+00, 3e+04]
  RHS range        [1e+00, 5e+01]

---------------------------------------------------------------------------
Multi-objectives: starting optimization with 2 objectives ... 
---------------------------------------------------------------------------

Multi-objectives: applying initial presolve ...
---------------------------------------------------------------------------

Presolve added 0 rows and 2 columns
Presolve removed 3 rows and 0 columns
Presolve time: 0.00s
Presolved: 20 rows and 24 columns
---------------------------------------------------------------------------

Multi-objectives: optimize objective 1 (ns) ...
---------------------------------------------------------------------------

Presolve removed 9 rows and 13 columns
Presolve time: 0.00s
Presolved: 19 rows, 12 columns, 47 nonzeros
Presolved model has 1 SOS constraint(s)
Presolved model has 2 bilinear constraint(s)
Variable types: 7 continuous, 5 integer (3 binary)

Root relaxation: objective 1.518897e+01, 9 iterations, 0.00 seconds

    Nodes    |    Current Node    |     Objective Bounds      |     Work
 Expl Unexpl |  Obj  Depth IntInf | Incumbent    BestBd   Gap | It/Node Time

     0     0   15.18897    0    4          -   15.18897      -     -    0s
     0     0   16.17955    0    4          -   16.17955      -     -    0s
     0     0   16.39983    0    2          -   16.39983      -     -    0s
     0     0   16.39983    0    2          -   16.39983      -     -    0s
H    0     0                      17.8571429   16.39983  8.16%     -    0s
     0     2   16.39983    0    2   17.85714   16.39983  8.16%     -    0s

Cutting planes:
  MIR: 2
  RLT: 1

Explored 3 nodes (18 simplex iterations) in 0.01 seconds
Thread count was 8 (of 8 available processors)

Solution count 1: 17.8571 

Optimal solution found (tolerance 1.00e-04)
Best objective 1.785714285714e+01, best bound 1.785714285714e+01, gap 0.0000%
---------------------------------------------------------------------------

Multi-objectives: optimize objective 2 (res) ...
---------------------------------------------------------------------------


Loaded user MIP start with objective 73.1108

Presolve removed 21 rows and 24 columns
Presolve time: 0.00s
Presolve: All rows and columns removed

Explored 0 nodes (0 simplex iterations) in 0.01 seconds
Thread count was 1 (of 8 available processors)

Solution count 1: 73.1108 

Optimal solution found (tolerance 1.00e-04)
Best objective 7.311082744598e+01, best bound 7.311082744598e+01, gap 0.0000%

---------------------------------------------------------------------------
Multi-objectives: solved in 0.01 seconds, solution count 1

--------------------------------------------------
Model update took: 5.53131103515625e-05 seconds
Model optimize took: 0.006802082061767578 seconds
--------------------------------------------------

Solution quality statistics for model netmon :
  Maximum violation:
    Bound       : 0.00000000e+00
    Constraint  : 3.05533376e-13
    Integrality : 0.00000000e+00

Throughput: 56.000000000000476 Mpps, ns per packet: 17.857142857142705
Resources: 73.11082744598389

Sketch (0) (cm: eps0: 1.25e-06, del0: 0.05, min_mem: 8494.6328125)
Par: 1, Rows: 3
1.000    0.000    
Total frac: 1.000

Device (0) cpu_1:
cores_sketch: 5.0, cores_dpdk: 2.0
Rows total: 3.0
Mem total: 25483.8984375
Throughput: 56.000000000000476

Device (1) p4_1:
Rows total: 0.0
Mem total: 0.0
Throughput: 148.0
--------------------------------------------------
